set A := A1 A2 A3 A4;
set Z := Z1 Z2 Z3 Z4 Z5 Z6;

param presupuesto := 145;

param costo := A1 55 A2 70 A3 60 A4 75;

param cobertura:
     Z1 Z2 Z3 Z4 Z5 Z6 :=
A1   1  1  0  0  0  0
A2   0  1  1  1  0  0
A3   0  0  1  1  1  0
A4   0  0  0  1  1  1;
